321 5
10 10 10 10 10 

0 0 0 0 0 0 3 2 34 46 
0 0 0 0 0 0 3 3 17 32 
8 1 1 0 0 1 2 31 4 
6 5 2 0 0 4 2 29 5 
4 1 3 0 0 3 1 6 
1 2 1 0 0 3 3 28 27 7 
3 2 2 0 0 4 2 26 8 
8 2 4 0 0 3 3 25 24 9 
8 3 3 0 0 2 1 10 
4 1 1 0 0 2 2 23 11 
9 4 2 0 0 3 1 12 
10 3 3 0 0 3 1 13 
1 2 2 0 0 2 4 22 21 20 14 
1 2 5 0 0 2 2 19 15 
1 4 2 0 0 2 2 16 242 
2 4 2 0 0 1 1 18 
5 3 4 0 0 2 1 30 
3 2 3 0 0 5 1 33 
1 2 5 0 0 1 1 33 
2 2 1 0 0 3 1 33 
2 3 2 0 0 2 1 33 
5 3 2 0 0 1 1 33 
6 3 1 0 0 2 1 33 
9 2 3 0 0 5 1 33 
9 4 2 0 0 1 1 33 
6 2 3 0 0 1 1 33 
8 2 3 0 0 1 1 33 
8 3 3 0 0 4 1 33 
2 2 1 0 0 3 1 33 
10 2 2 0 0 4 1 33 
2 3 5 0 0 2 1 33 
3 1 2 0 0 3 1 33 
0 0 0 0 0 0 1 160 
0 0 0 0 0 0 2 35 38 
6 0 0 0 1 0 3 44 37 36 
2 0 0 0 4 0 3 43 42 39 
7 0 0 0 1 0 2 42 40 
8 0 0 0 4 0 1 39 
5 0 0 0 1 0 1 40 
3 0 0 0 2 0 2 41 294 
4 0 0 0 2 0 1 45 
3 0 0 0 5 0 1 45 
1 0 0 0 2 0 1 45 
7 0 0 0 3 0 1 45 
0 0 0 0 0 0 2 78 90 
0 0 0 0 0 0 3 47 48 76 
1 0 1 1 0 1 2 75 49 
3 0 3 1 0 1 3 75 74 50 
2 0 4 2 0 3 2 63 50 
7 0 2 2 0 2 1 51 
3 0 7 3 0 1 3 73 72 52 
3 0 2 1 0 4 1 53 
2 0 2 2 0 2 3 71 70 54 
7 0 3 3 0 2 2 69 55 
4 0 1 2 0 1 1 56 
6 0 3 2 0 3 1 57 
2 0 5 1 0 3 2 68 58 
10 0 2 4 0 2 1 59 
1 0 4 2 0 4 4 67 66 62 60 
5 0 5 1 0 1 3 64 61 313 
6 0 1 1 0 2 1 65 
3 0 2 7 0 1 1 64 
3 0 2 2 0 6 1 74 
3 0 3 3 0 2 1 77 
2 0 3 2 0 3 1 77 
3 0 1 2 0 3 1 77 
8 0 3 6 0 4 1 77 
6 0 1 3 0 2 1 77 
2 0 1 3 0 2 1 77 
2 0 4 1 0 1 1 77 
8 0 1 3 0 3 1 77 
4 0 1 3 0 2 1 77 
8 0 2 3 0 4 1 77 
9 0 2 4 0 3 1 77 
9 0 2 2 0 3 1 77 
9 0 2 3 0 4 1 77 
0 0 0 0 0 0 1 160 
0 0 0 0 0 0 4 79 81 84 85 
7 0 0 0 1 0 2 83 80 
6 0 0 0 2 0 1 82 
2 0 0 0 4 0 1 82 
5 0 0 0 3 0 2 88 86 
10 0 0 0 1 0 2 88 86 
6 0 0 0 4 0 2 88 86 
5 0 0 0 2 0 2 88 86 
7 0 0 0 2 0 1 87 
2 0 0 0 3 0 2 89 206 
5 0 0 0 3 0 1 89 
0 0 0 0 0 0 4 112 124 136 148 
0 0 0 0 0 0 5 91 92 95 98 224 
10 1 1 0 0 0 3 101 100 93 
9 3 3 0 0 0 5 105 101 100 99 96 
2 4 1 0 0 0 1 94 
6 3 2 0 0 0 3 105 99 96 
1 6 3 0 0 0 2 103 100 
6 1 3 0 0 0 1 97 
8 2 5 0 0 0 2 103 102 
10 4 2 0 0 0 1 99 
4 4 3 0 0 0 1 102 
3 2 3 0 0 0 1 102 
1 1 3 0 0 0 1 103 
2 6 2 0 0 0 1 104 
5 2 3 0 0 0 1 104 
2 2 2 0 0 0 3 110 109 106 
7 1 3 0 0 0 2 109 106 
4 1 3 0 0 0 1 107 
2 3 2 0 0 0 1 108 
9 1 2 0 0 0 1 111 
4 1 3 0 0 0 1 111 
9 2 1 0 0 0 1 111 
0 0 0 0 0 0 1 160 
0 0 0 0 0 0 3 113 115 116 
6 0 1 0 0 0 1 114 
3 0 2 0 0 0 3 118 117 263 
6 0 1 0 0 0 2 119 117 
4 0 3 0 0 0 3 122 120 119 
5 0 1 0 0 0 2 122 120 
10 0 2 0 0 0 2 122 119 
7 0 1 0 0 0 1 121 
7 0 3 0 0 0 1 121 
1 0 6 0 0 0 1 123 
8 0 5 0 0 0 1 123 
0 0 0 0 0 0 1 160 
0 0 0 0 0 0 2 125 129 
7 1 0 0 0 0 3 128 127 126 
7 3 0 0 0 0 2 131 130 
6 2 0 0 0 0 2 132 131 
1 3 0 0 0 0 2 132 131 
7 1 0 0 0 0 3 132 131 291 
2 2 0 0 0 0 2 134 132 
3 4 0 0 0 0 2 134 133 
3 2 0 0 0 0 1 133 
7 2 0 0 0 0 1 135 
10 5 0 0 0 0 1 135 
0 0 0 0 0 0 1 160 
0 0 0 0 0 0 5 137 139 141 144 146 
4 0 0 0 1 0 2 143 138 
5 0 0 0 2 0 1 140 
6 0 0 0 3 0 1 140 
7 0 0 0 4 0 2 142 202 
5 0 0 0 4 0 1 142 
5 0 0 0 2 0 1 145 
3 0 0 0 2 0 1 145 
9 0 0 0 2 0 1 145 
9 0 0 0 2 0 1 147 
10 0 0 0 3 0 1 147 
0 0 0 0 0 0 1 160 
0 0 0 0 0 0 2 149 150 
5 0 0 1 0 0 2 152 151 
1 0 0 1 0 0 1 151 
3 0 0 4 0 0 2 154 153 
3 0 0 2 0 0 2 154 153 
1 0 0 2 0 0 2 156 155 
4 0 0 2 0 0 3 156 155 277 
4 0 0 1 0 0 2 158 157 
3 0 0 4 0 0 1 157 
6 0 0 3 0 0 1 159 
10 0 0 5 0 0 1 159 
0 0 0 0 0 0 1 160 
0 0 0 0 0 0 5 161 183 205 227 239 
0 0 0 0 0 0 1 162 
5 0 0 0 1 1 2 166 163 
9 0 0 0 2 2 1 164 
7 0 0 0 1 3 2 170 165 
2 0 0 0 4 1 1 167 
3 0 0 0 2 4 1 167 
1 0 0 0 3 2 5 181 180 174 173 168 
9 0 0 0 3 2 3 179 178 169 
9 0 0 0 2 2 2 176 171 
4 0 0 0 4 1 4 178 177 176 175 
3 0 0 0 2 4 2 177 172 
5 0 0 0 4 3 1 175 
8 0 0 0 4 1 1 176 
10 0 0 0 1 2 1 175 
7 0 0 0 1 4 1 182 
10 0 0 0 2 2 1 182 
5 0 0 0 2 2 1 182 
4 0 0 0 2 2 1 182 
7 0 0 0 2 5 1 182 
10 0 0 0 4 3 1 182 
7 0 0 0 4 4 1 182 
0 0 0 0 0 0 1 321 
0 0 0 0 0 0 9 184 196 197 198 199 200 201 202 203 
3 0 1 0 0 1 3 195 194 185 
3 0 2 0 0 2 1 186 
6 0 3 0 0 3 1 187 
4 0 7 0 0 2 1 188 
1 0 4 0 0 3 1 189 
1 0 1 0 0 2 1 190 
1 0 2 0 0 5 1 191 
9 0 3 0 0 3 1 192 
4 0 2 0 0 2 1 193 
5 0 1 0 0 2 1 204 
4 0 2 0 0 2 1 204 
1 0 3 0 0 3 1 204 
2 0 2 0 0 1 1 204 
8 0 4 0 0 2 1 204 
4 0 2 0 0 3 1 204 
3 0 2 0 0 3 1 204 
3 0 1 0 0 2 1 204 
4 0 4 0 0 5 1 204 
2 0 2 0 0 2 1 204 
2 0 2 0 0 2 1 204 
0 0 0 0 0 0 1 321 
0 0 0 0 0 0 5 206 213 223 224 225 
6 1 0 0 0 1 1 207 
1 2 0 0 0 1 3 222 221 208 
7 1 0 0 0 4 4 220 219 217 209 
8 2 0 0 0 2 2 218 210 
7 1 0 0 0 3 1 211 
7 3 0 0 0 1 1 212 
10 4 0 0 0 2 1 214 
9 2 0 0 0 3 2 217 216 
1 3 0 0 0 2 1 215 
10 2 0 0 0 2 1 216 
6 1 0 0 0 3 1 226 
2 4 0 0 0 3 1 226 
8 3 0 0 0 6 1 226 
1 3 0 0 0 1 1 226 
6 5 0 0 0 3 1 226 
7 2 0 0 0 2 1 226 
4 2 0 0 0 3 1 226 
10 3 0 0 0 3 1 226 
7 2 0 0 0 2 1 226 
3 4 0 0 0 3 1 226 
0 0 0 0 0 0 1 321 
0 0 0 0 0 0 2 228 230 
5 0 0 0 0 1 2 231 229 
1 0 0 0 0 2 3 237 233 232 
4 0 0 0 0 3 1 231 
5 0 0 0 0 2 2 236 233 
10 0 0 0 0 3 2 236 235 
1 0 0 0 0 1 1 234 
9 0 0 0 0 2 1 235 
4 0 0 0 0 4 1 238 
6 0 0 0 0 4 1 238 
3 0 0 0 0 3 1 238 
0 0 0 0 0 0 5 261 273 285 297 309 
0 0 0 0 0 0 5 240 242 257 258 259 
10 1 1 0 0 0 3 256 253 241 
2 1 2 0 0 0 4 255 254 252 243 
7 4 6 0 0 0 4 253 252 251 244 
9 1 1 0 0 0 2 251 244 
6 2 1 0 0 0 1 245 
7 2 3 0 0 0 1 246 
1 3 4 0 0 0 1 247 
8 1 2 0 0 0 1 248 
5 4 1 0 0 0 1 249 
8 1 2 0 0 0 1 250 
2 6 4 0 0 0 1 260 
2 2 1 0 0 0 1 260 
9 3 6 0 0 0 1 260 
1 4 1 0 0 0 1 260 
6 3 3 0 0 0 1 260 
6 2 3 0 0 0 1 260 
2 3 2 0 0 0 1 260 
10 1 4 0 0 0 1 260 
5 5 1 0 0 0 1 260 
2 1 2 0 0 0 1 260 
0 0 0 0 0 0 1 321 
0 0 0 0 0 0 2 262 263 
7 0 0 0 0 1 1 264 
4 0 0 0 0 4 1 264 
1 0 0 0 0 2 2 267 265 
7 0 0 0 0 3 2 271 266 
9 0 0 0 0 4 3 270 269 268 
2 0 0 0 0 3 3 270 269 268 
7 0 0 0 0 1 1 272 
10 0 0 0 0 1 1 272 
8 0 0 0 0 2 1 272 
2 0 0 0 0 4 1 272 
0 0 0 0 0 0 1 321 
0 0 0 0 0 0 1 274 
2 0 0 1 0 0 2 276 275 
6 0 0 1 0 0 3 279 278 277 
2 0 0 2 0 0 2 278 277 
3 0 0 2 0 0 2 281 280 
8 0 0 2 0 0 1 280 
10 0 0 4 0 0 1 280 
1 0 0 3 0 0 2 283 282 
9 0 0 2 0 0 1 282 
8 0 0 3 0 0 1 284 
4 0 0 5 0 0 1 284 
0 0 0 0 0 0 1 321 
0 0 0 0 0 0 2 286 287 
3 1 0 0 0 0 1 288 
9 1 0 0 0 0 1 288 
1 4 0 0 0 0 2 291 289 
8 3 0 0 0 0 4 295 294 293 290 
7 3 0 0 0 0 1 292 
5 3 0 0 0 0 1 292 
10 3 0 0 0 0 1 296 
1 2 0 0 0 0 1 296 
9 3 0 0 0 0 1 296 
9 2 0 0 0 0 1 296 
0 0 0 0 0 0 1 321 
0 0 0 0 0 0 3 298 302 304 
7 0 0 0 0 1 2 301 299 
8 0 0 0 0 1 2 307 300 
4 0 0 0 0 3 1 303 
4 0 0 0 0 6 1 303 
1 0 0 0 0 3 1 303 
1 0 0 0 0 4 2 306 305 
2 0 0 0 0 2 2 307 305 
10 0 0 0 0 1 1 308 
3 0 0 0 0 2 1 308 
2 0 0 0 0 2 1 308 
0 0 0 0 0 0 1 321 
0 0 0 0 0 0 4 310 311 318 319 
3 0 0 0 0 1 1 312 
1 0 0 0 0 4 3 317 316 314 
4 0 0 0 0 2 2 316 313 
9 0 0 0 0 3 1 314 
3 0 0 0 0 1 1 315 
8 0 0 0 0 2 1 320 
4 0 0 0 0 2 1 320 
10 0 0 0 0 1 1 320 
3 0 0 0 0 5 1 320 
8 0 0 0 0 4 1 320 
0 0 0 0 0 0 1 321 
0 0 0 0 0 0 0 
